# Solution for model F-JSSP-SDST
# Objective value = 134
B0(9) 0
B1(9) 1
B2(8) 0
B3(8) 1
B4(9) 1
B5(9) 0
B6(8) 1
B7(8) 0
B8(2) 0
B9(2) 0
B10(2) 0
B11(2) 0
B12(2) 0
B13(2) 0
B14(2) 0
B15(2) 0
I16(10) 0
I17(10) 0
I18(11) 0
I19(11) 40
I20(10) 0
I21(10) 0
I22(11) 49
I23(11) 0
I24(1) 134
